1 912
2 865
4 839
5 830
8 784
10 782
14 758
22 751
35 707



1 987
2 911
3 862
5 859
6 840
7 816
8 776
12 715
864 714



1 964
2 863
3 780
5 743
75 727
291 706



1 913
2 842
3 828
6 768
7 721
403 720
989 707



1 956
2 841
4 812
5 805
8 803
9 758
41 706



